NPROCS=0
This instance is clustered!
Gurobi Optimizer version 9.0.0 build v9.0.0rc2 (linux64)
Optimize a model with 16 rows, 65 columns and 128 nonzeros
Model fingerprint: 0x1f4f6ea8
Variable types: 1 continuous, 64 integer (64 binary)
Coefficient statistics:
  Matrix range     [1e+00, 1e+00]
  Objective range  [1e+00, 2e+01]
  Bounds range     [1e+00, 1e+00]
  RHS range        [1e+00, 1e+00]
Presolve removed 2 rows and 21 columns
Presolve time: 0.00s
Presolved: 14 rows, 44 columns, 86 nonzeros
Variable types: 1 continuous, 43 integer (43 binary)

Root relaxation: objective 3.275435e+01, 11 iterations, 0.00 seconds

    Nodes    |    Current Node    |     Objective Bounds      |     Work
 Expl Unexpl |  Obj  Depth IntInf | Incumbent    BestBd   Gap | It/Node Time

     0     0   34.36139    0   13          -   34.36139      -     -    0s
H    0     0                      50.9747156   34.36139  32.6%     -    0s
H    0     0                      46.4291997   34.36139  26.0%     -    0s
     0     0   34.54512    0   15   46.42920   34.54512  25.6%     -    0s
     0     0   34.54512    0   15   46.42920   34.54512  25.6%     -    0s
     0     2   35.25343    0   15   46.42920   35.25343  24.1%     -    0s
   416     2 infeasible    8        46.42920   42.05415  9.42%   2.0   11s

Cutting planes:
  Gomory: 1
  Lazy constraints: 163

Explored 435 nodes (893 simplex iterations) in 11.40 seconds
Thread count was 12 (of 12 available processors)

Solution count 2: 46.4292 50.9747 

Optimal solution found (tolerance 1.00e-04)
Best objective 4.642919972477e+01, best bound 4.642919972477e+01, gap 0.0000%

User-callback calls 1134, time in user-callback 11.28 sec
---> instance_name: n_6_e_5.dat
---> algo_index: 1
---> obj_value: 46.4292
---> total_time: 11.4914
---> total_time_gurobi: 11.4006
---> total_nb_benders_cuts: 140
---> total_nb_subtour_cuts: 25
---> total_nb_user_cuts: 0
---> GRB_IntAttr_Status: 2
---> optimality_gap: 0
---> node_count: 435
 =====>>>>> Solution is written to file in <../ret/model_outs> !!!
===>> All Done!
